examples/inputs/input29.dzn
n = 67;
l = 450;
s = 400;
r = 400;
f = 100;
forbidden = [| 8, 30
	| 16, 47
	| 47, 50
	| 42, 48
	| 25, 37
	| 48, 44
	| 18, 58
	| 66, 21
	| 51, 63
	| 17, 7
	| 5, 61
	| 10, 44
	| 48, 21
	| 22, 29
	| 29, 42
	| 52, 25
	| 48, 25
	| 32, 6
	| 66, 7
	| 61, 39
	| 15, 7
	| 10, 58
	| 2, 42
	| 7, 47
	| 26, 45
	| 19, 38
	| 17, 23
	| 58, 18
	| 67, 11
	| 32, 29
	| 2, 14
	| 59, 49
	| 9, 17
	| 24, 63
	| 55, 27
	| 20, 19
	| 48, 4
	| 10, 39
	| 8, 64
	| 46, 36
	| 41, 29
	| 52, 39
	| 9, 60
	| 27, 62
	| 63, 53
	| 61, 40
	| 56, 5
	| 48, 23
	| 60, 29
	| 60, 50
	| 59, 3
	| 22, 24
	| 11, 53
	| 32, 56
	| 40, 64
	| 24, 35
	| 4, 22
	| 6, 3
	| 66, 33
	| 20, 26
	| 44, 66
	| 10, 57
	| 60, 54
	| 25, 11
	| 18, 2
	| 33, 10
	| 25, 55
	| 32, 27
	| 1, 67
	| 60, 20
	| 4, 10
	| 54, 46
	| 67, 25
	| 38, 43
	| 23, 16
	| 57, 22
	| 40, 37
	| 58, 40
	| 18, 30
	| 50, 12
	| 2, 44
	| 51, 45
	| 21, 14
	| 37, 65
	| 39, 8
	| 27, 25
	| 44, 12
	| 30, 41
	| 59, 32
	| 37, 32
	| 51, 29
	| 52, 47
	| 47, 42
	| 38, 15
	| 11, 51
	| 34, 65
	| 52, 52
	| 25, 56
	| 34, 51
	| 12, 43
	|];