examples/inputs/input29.lp
#const n = 67.
#const l = 450.
#const s = 400.
#const r = 400.
#const f = 100.
val(8, 30, xxx).
val(16, 47, xxx).
val(47, 50, xxx).
val(42, 48, xxx).
val(25, 37, xxx).
val(48, 44, xxx).
val(18, 58, xxx).
val(66, 21, xxx).
val(51, 63, xxx).
val(17, 7, xxx).
val(5, 61, xxx).
val(10, 44, xxx).
val(48, 21, xxx).
val(22, 29, xxx).
val(29, 42, xxx).
val(52, 25, xxx).
val(48, 25, xxx).
val(32, 6, xxx).
val(66, 7, xxx).
val(61, 39, xxx).
val(15, 7, xxx).
val(10, 58, xxx).
val(2, 42, xxx).
val(7, 47, xxx).
val(26, 45, xxx).
val(19, 38, xxx).
val(17, 23, xxx).
val(58, 18, xxx).
val(67, 11, xxx).
val(32, 29, xxx).
val(2, 14, xxx).
val(59, 49, xxx).
val(9, 17, xxx).
val(24, 63, xxx).
val(55, 27, xxx).
val(20, 19, xxx).
val(48, 4, xxx).
val(10, 39, xxx).
val(8, 64, xxx).
val(46, 36, xxx).
val(41, 29, xxx).
val(52, 39, xxx).
val(9, 60, xxx).
val(27, 62, xxx).
val(63, 53, xxx).
val(61, 40, xxx).
val(56, 5, xxx).
val(48, 23, xxx).
val(60, 29, xxx).
val(60, 50, xxx).
val(59, 3, xxx).
val(22, 24, xxx).
val(11, 53, xxx).
val(32, 56, xxx).
val(40, 64, xxx).
val(24, 35, xxx).
val(4, 22, xxx).
val(6, 3, xxx).
val(66, 33, xxx).
val(20, 26, xxx).
val(44, 66, xxx).
val(10, 57, xxx).
val(60, 54, xxx).
val(25, 11, xxx).
val(18, 2, xxx).
val(33, 10, xxx).
val(25, 55, xxx).
val(32, 27, xxx).
val(1, 67, xxx).
val(60, 20, xxx).
val(4, 10, xxx).
val(54, 46, xxx).
val(67, 25, xxx).
val(38, 43, xxx).
val(23, 16, xxx).
val(57, 22, xxx).
val(40, 37, xxx).
val(58, 40, xxx).
val(18, 30, xxx).
val(50, 12, xxx).
val(2, 44, xxx).
val(51, 45, xxx).
val(21, 14, xxx).
val(37, 65, xxx).
val(39, 8, xxx).
val(27, 25, xxx).
val(44, 12, xxx).
val(30, 41, xxx).
val(59, 32, xxx).
val(37, 32, xxx).
val(51, 29, xxx).
val(52, 47, xxx).
val(47, 42, xxx).
val(38, 15, xxx).
val(11, 51, xxx).
val(34, 65, xxx).
val(52, 52, xxx).
val(25, 56, xxx).
val(34, 51, xxx).
val(12, 43, xxx).